p cnf 66 235
-3 1 0
-3 2 0
-1 -2 3 0
5 3 0
5 4 0
-3 -4 -5 0
-6 5 0
-6 3 0
-5 -3 6 0
-9 7 0
-9 -8 0
-7 8 9 0
10 -9 0
10 -1 0
9 1 -10 0
-7 -11 -12 0
7 11 -12 0
-7 11 12 0
7 -11 12 0
-13 -10 0
-13 -12 0
10 12 13 0
15 -14 0
15 -7 0
14 7 -15 0
-16 -13 0
-16 -15 0
13 15 16 0
-18 17 0
-18 7 0
-17 -7 18 0
-19 -16 0
-19 18 0
16 -18 19 0
20 6 0
20 -19 0
-6 19 -20 0
-21 -4 0
-21 -8 0
4 8 21 0
-22 -21 0
-22 -1 0
21 1 22 0
23 -22 0
23 -11 0
22 11 -23 0
-24 -25 0
24 -25 0
23 -25 -26 0
-23 25 -26 0
23 25 26 0
-23 -25 26 0
-27 20 0
-27 26 0
-20 -26 27 0
-28 7 0
-28 4 0
-7 -4 28 0
-28 -1 -29 0
28 1 -29 0
-28 1 29 0
28 -1 29 0
-30 28 0
-30 10 0
-28 -10 30 0
31 -29 0
31 30 0
29 -30 -31 0
28 -32 -33 0
-28 32 -33 0
28 32 33 0
-28 -32 33 0
34 -4 0
34 28 0
4 -28 -34 0
35 -33 0
35 34 0
33 -34 -35 0
-36 -5 0
-36 7 0
5 -7 36 0
-35 -36 -37 0
35 36 -37 0
-35 36 37 0
35 -36 37 0
-38 31 0
-38 37 0
-31 -37 38 0
-27 -38 -39 0
27 38 -39 0
-27 38 39 0
27 -38 39 0
-15 -24 -40 0
15 24 -40 0
-15 24 40 0
15 -24 40 0
-18 10 -41 0
18 -10 -41 0
-18 -10 41 0
18 10 41 0
40 -41 -42 0
-40 41 -42 0
40 41 42 0
-40 -41 42 0
-43 14 0
-43 28 0
-14 -28 43 0
44 -9 0
44 11 0
9 -11 -44 0
45 -44 0
45 17 0
44 -17 -45 0
-46 43 0
-46 -45 0
-43 45 46 0
47 -42 0
47 -46 0
42 46 -47 0
48 -21 0
48 7 0
21 -7 -48 0
-49 47 0
-49 -48 0
-47 48 49 0
-50 -39 0
-50 49 0
39 -49 50 0
-51 10 0
-51 18 0
-10 -18 51 0
52 44 0
52 -4 0
-44 4 -52 0
-53 22 0
-53 22 0
-22 53 0
54 52 0
54 53 0
-52 -53 -54 0
44 -3 -55 0
-44 3 -55 0
44 3 55 0
-44 -3 55 0
4 -22 -56 0
-4 22 -56 0
4 22 56 0
-4 -22 56 0
57 -55 0
57 56 0
55 -56 -57 0
54 -57 -58 0
-54 57 -58 0
54 57 58 0
-54 -57 58 0
-59 -28 0
-59 22 0
28 -22 59 0
-60 -59 0
-60 15 0
59 -15 60 0
-61 58 0
-61 -60 0
-58 60 61 0
51 61 -62 0
-51 -61 -62 0
51 -61 62 0
-51 61 62 0
-63 53 0
-63 2 0
-53 -2 63 0
64 -63 0
64 6 0
63 -6 -64 0
-65 62 0
-65 64 0
-62 -64 65 0
66 50 0
66 -65 0
-50 65 -66 0
49 -1 0
5 11 -49 4 0
-44 -23 15 0
-37 -30 -44 49 53 0
8 20 -62 0
-43 -10 0
-42 -62 50 0
31 -16 -33 -54 18 51 0
44 -59 0
64 -12 -13 -32 3 0
-53 44 -55 -10 13 37 0
27 46 11 0
10 43 -25 21 54 53 0
11 5 0
66 -55 -61 -19 -41 65 0
4 -50 9 -8 -10 0
23 44 14 27 -22 0
-55 -53 -35 0
16 -5 47 0
31 58 0
-18 -19 31 26 0
-12 49 0
-64 -35 -9 5 0
64 48 -16 -24 0
47 28 20 21 0
-25 52 0
-1 -55 -25 0
-32 56 -15 0
31 -5 -28 0
61 47 31 0
-60 40 -41 46 0
-37 -16 0
31 -2 45 0
-42 51 43 25 0
-43 -46 15 10 -51 0
5 -48 -62 0
-11 59 -56 -30 0
-38 35 -4 0
-31 66 57 35 -56 0
50 15 -37 -21 -12 34 0
15 -28 -66 40 -50 -19 0
-18 -35 -33 60 -32 -5 0
58 64 10 -45 -54 0
-14 -43 54 7 -55 0
-42 -26 0
-51 36 -41 -56 0
-8 -53 21 65 51 61 0
12 -8 -46 41 64 -39 0
-7 -1 -36 0
-1 60 -65 0
47 57 10 0
-18 2 -63 54 0
-52 -26 -62 -59 0
-40 -58 54 -47 0
66 0
